
Log started (V11.0.0) Wed Apr 23 23:02:20 2008

Tried aggregator 1 time.
Reduced MIP has 540 rows, 20001 columns, and 40040 nonzeros.
Presolve time =    0.14 sec.
Clique table members: 500.
MIP emphasis: balance optimality and feasibility.
MIP search method: dynamic search.
Parallel mode: none, using 1 thread.
Root relaxation solution time =    1.64 sec.

        Nodes                                         Cuts/
   Node  Left     Objective  IInf  Best Integer     Best Node    ItCnt     Gap

*     0+    0                        75240.0000     1275.5891      939   98.30%
*     0+    0                         1332.0000     1275.5891      939    4.24%
      0     0     1276.2847    81     1332.0000      Fract: 6      977    4.18%
      0     0     1276.4941    83     1332.0000     Covers: 2     1028    4.17%
      0     0     1276.8959    88     1332.0000     Covers: 3     1069    4.14%
      0     0     1277.4050    88     1332.0000     Covers: 1     1122    4.10%
*     0+    0                         1331.0000     1277.4050     1122    4.03%
      0     0     1277.4056    92     1331.0000     Covers: 3     1130    4.03%
      0     0     1277.4159    91     1331.0000     Covers: 1     1141    4.03%
*     0+    0                         1330.0000     1277.4159     1141    3.95%
*     0+    0                         1329.0000     1277.4159     1141    3.88%
*     0+    0                         1326.0000     1277.4159     1141    3.66%
      0     2     1278.0000    86     1326.0000     1277.4159     1141    3.66%
    100   102     1278.0000    84     1326.0000     1278.0000     4248    3.62%
*   200+  193                         1325.0000     1278.0000     9805    3.55%
*   200+  193                         1324.0000     1278.0000     9805    3.47%
    200   195     1279.0000    78     1324.0000     1278.0000     9805    3.47%
    300   284     1280.0000    72     1324.0000     1278.0000    15931    3.47%
*   400+  374                         1323.0000     1278.0000    21711    3.40%
    400   376     1281.0000    80     1323.0000     1278.0000    21711    3.40%
    500   459     1282.0000    77     1323.0000     1278.0000    30625    3.40%
    600   493     1285.0000   136     1323.0000     1284.1128    44517    2.94%
    700   519     1285.0000   132     1323.0000     1284.1128    58876    2.94%
    800   543     1286.0000   106     1323.0000     1284.1128    70426    2.94%
    900   566     1287.8890   119     1323.0000     1284.1128    82814    2.94%
   1000   592     1287.0000   109     1323.0000     1284.1128    93359    2.94%
Elapsed time = 339.22 sec. (tree size =  7.54 MB, solutions = 9)
   1100   600     1288.0000    80     1323.0000     1284.1128   111028    2.94%
   1200   617     1288.9933   104     1323.0000     1284.1128   137991    2.94%
   1300   694     1290.0000    76     1323.0000     1284.1128   146367    2.94%
   1400   764     1290.7736    91     1323.0000     1284.1128   152911    2.94%
   1500   830     1290.0000    80     1323.0000     1284.1128   160112    2.94%
   1600   897     1291.0000    77     1323.0000     1284.1128   165354    2.94%
   1700   991     1308.0000    50     1323.0000     1284.1128   169626    2.94%
   1800  1079     1293.0000    70     1323.0000     1284.1128   173339    2.94%
   1900  1154     1294.0000    69     1323.0000     1284.1128   176916    2.94%
   2000  1223     1294.0000    71     1323.0000     1284.1128   181883    2.94%
Elapsed time = 511.72 sec. (tree size = 17.13 MB, solutions = 9)
   2100  1281     1294.0000    74     1323.0000     1284.1128   187045    2.94%
   2200  1358     1295.0000    70     1323.0000     1284.1128   191107    2.94%
   2300  1434     1296.0000    74     1323.0000     1284.1128   195551    2.94%
   2400  1502     1297.7652    72     1323.0000     1284.1128   198417    2.94%
   2500  1570     1297.9311    72     1323.0000     1284.1128   201636    2.94%
   2600  1639     1304.0000    53     1323.0000     1284.1128   204664    2.94%
   2700  1708     1300.2495    72     1323.0000     1284.1128   207340    2.94%
   2800  1775     1300.0000    66     1323.0000     1284.1128   209443    2.94%
   2900  1836     1303.9833    72     1323.0000     1284.1128   212536    2.94%
   3000  1901     1303.3831    71     1323.0000     1284.1128   215920    2.94%
Elapsed time = 586.94 sec. (tree size = 27.18 MB, solutions = 9)
   3100  1966     1303.0000    65     1323.0000     1284.1128   219957    2.94%
   3200  2033     1303.0000    64     1323.0000     1284.1128   223528    2.94%
   3300  2099     1304.9552    68     1323.0000     1284.1128   226751    2.94%
   3400  2163     1307.0000    70     1323.0000     1284.1128   229916    2.94%
   3500  2229     1316.0000    60     1323.0000     1284.1128   233240    2.94%
   3600  2301     1318.9271    62     1323.0000     1284.1128   235642    2.94%
   3700  2362     1320.1391    62     1323.0000     1284.1128   238968    2.94%
   3800  2429     1285.0000   143     1323.0000     1284.1473   246465    2.94%
   3900  2526     1285.0000   164     1323.0000     1284.1473   265784    2.94%
   4000  2623     1286.0000    77     1323.0000     1284.1473   269032    2.94%
Elapsed time = 736.45 sec. (tree size = 37.54 MB, solutions = 9)
   4100  2723     1286.0000   105     1323.0000     1284.1473   277521    2.94%
   4200  2823     1286.0000   107     1323.0000     1284.1473   285841    2.94%
   4300  2916     1287.0000   114     1323.0000     1284.1473   302096    2.94%
   4400  3005     1288.0000    98     1323.0000     1284.1473   310348    2.94%
   4500  3086     1289.0000    72     1323.0000     1284.1473   319615    2.94%
   4600  3160     1289.0000   100     1323.0000     1284.1473   328995    2.94%
   4700  3232     1291.0000    70     1323.0000     1284.1473   335555    2.94%
   4800  3313     1292.0000    71     1323.0000     1284.1473   338857    2.94%
   4900  3405     1293.0000    70     1323.0000     1284.1473   341241    2.94%
   5000  3489     1294.0000    80     1323.0000     1284.1473   343895    2.94%
Elapsed time = 922.02 sec. (tree size = 50.41 MB, solutions = 9)
   5100  3574     1295.0000    72     1323.0000     1284.1473   346442    2.94%
   5200  3665     1296.0000    71     1323.0000     1284.1473   348830    2.94%
   5300  3749     1298.0000    66     1323.0000     1284.1473   351741    2.94%
   5400  3828     1299.1749    75     1323.0000     1284.1473   355291    2.94%
   5500  3907     1300.6678    81     1323.0000     1284.1473   361128    2.94%
   5600  3974     1301.6376    75     1323.0000     1284.1473   365670    2.94%
   5700  4059     1303.1171    74     1323.0000     1284.1473   367582    2.94%
   5800  4131     1304.0000    65     1323.0000     1284.1473   370621    2.94%
   5900  4199     1305.0000    69     1323.0000     1284.1473   374144    2.94%
   6000  4278     1307.0000    67     1323.0000     1284.1473   376754    2.94%
Elapsed time = 999.31 sec. (tree size = 62.61 MB, solutions = 9)
   6100  4352     1308.0000    68     1323.0000     1284.1473   380668    2.94%
   6200  4432     1308.0000    67     1323.0000     1284.1473   384628    2.94%
   6300  4514     1320.0000    50     1323.0000     1284.1473   389735    2.94%
   6400  4597     1310.0000    64     1323.0000     1284.1473   392792    2.94%
   6500  4675     1312.0000    59     1323.0000     1284.1473   395487    2.94%
   6600  4748     1314.0000    61     1323.0000     1284.1473   397501    2.94%
   6700  4810     1317.5235    63     1323.0000     1284.1473   400317    2.94%
   6800  4864     1317.0000    62     1323.0000     1284.1473   403123    2.94%
   6900  4935     1321.0000    53     1323.0000     1284.1473   404779    2.94%
   7000  4968     1286.7298   312     1323.0000     1285.0000   434161    2.87%
Elapsed time = 1137.25 sec. (tree size = 73.27 MB, solutions = 9)
   7100  5055     1290.0000   150     1323.0000     1285.0000   491202    2.87%
   7200  5151     1291.0000    90     1323.0000     1285.0000   508985    2.87%
   7300  5249     1291.0000   123     1323.0000     1285.0000   516445    2.87%
   7400  5346     1291.0000   135     1323.0000     1285.0000   527894    2.87%
   7500  5440     1291.0000   136     1323.0000     1285.0000   544561    2.87%
   7600  5533     1292.0000   104     1323.0000     1285.0000   560066    2.87%
   7700  5623     1292.0000   114     1323.0000     1285.0000   577682    2.87%
   7800  5711     1293.0000    89     1323.0000     1285.0000   594221    2.87%
   7900  5792     1295.0000    97     1323.0000     1285.0000   613492    2.87%
   8000  5872     1296.1706   103     1323.0000     1285.0000   621452    2.87%
Elapsed time = 1598.94 sec. (tree size = 90.70 MB, solutions = 9)
   8100  5954     1298.0000    74     1323.0000     1285.0000   627112    2.87%
   8200  6032     1299.6591    85     1323.0000     1285.0000   631996    2.87%
   8300  6112     1301.0000    67     1323.0000     1285.0000   636407    2.87%
   8400  6192     1303.0000    61     1323.0000     1285.0000   639691    2.87%
   8500  6267     1307.3731    80     1323.0000     1285.0000   643469    2.87%
   8600  6333     1306.0000    84     1323.0000     1285.0000   649482    2.87%
   8700  6409     1311.0957    81     1323.0000     1285.0000   655420    2.87%
   8800  6486     1309.0000    77     1323.0000     1285.0000   661321    2.87%
   8900  6567     1310.0000    68     1323.0000     1285.0000   664766    2.87%
   9000  6628     1311.0000    56     1323.0000     1285.0000   670107    2.87%
Elapsed time = 1738.28 sec. (tree size = 106.07 MB, solutions = 9)
   9100  6689     1312.5743    69     1323.0000     1285.0000   676321    2.87%
   9200  6759     1314.0000    53     1323.0000     1285.0000   680380    2.87%
   9300  6835     1316.0000    64     1323.0000     1285.0000   683731    2.87%
   9400  6904     1285.4031   391     1323.0000     1285.0000   698909    2.87%
   9500  6986     1289.0000   150     1323.0000     1285.0000   785582    2.87%
   9600  7085     1289.0000   188     1323.0000     1285.0000   816259    2.87%
   9700  7181     1290.0000   104     1323.0000     1285.0000   827996    2.87%
   9800  7278     1290.0000   104     1323.0000     1285.0000   844173    2.87%
   9900  7375     1290.0000   112     1323.0000     1285.0000   857503    2.87%
  10000  7467     1291.0000    81     1323.0000     1285.0000   867039    2.87%
Elapsed time = 2251.47 sec. (tree size = 123.71 MB, solutions = 9)
  10100  7563     1291.0000   121     1323.0000     1285.0000   876577    2.87%
  10200  7652     1293.0000   103     1323.0000     1285.0000   882492    2.87%
  10300  7737     1294.0000    77     1323.0000     1285.0000   888506    2.87%
  10400  7827     1296.0000    92     1323.0000     1285.0000   892696    2.87%
  10500  7920     1297.0000    86     1323.0000     1285.0000   896551    2.87%
  10600  8012     1301.3630    81     1323.0000     1285.0000   901333    2.87%
  10700  8094     1301.0000    73     1323.0000     1285.0000   904185    2.87%
  10800  8167     1301.8650    78     1323.0000     1285.0000   908273    2.87%
  10900  8238     1302.0000    76     1323.0000     1285.0000   913445    2.87%
  11000  8315     1304.0000    69     1323.0000     1285.0000   916357    2.87%
Elapsed time = 2381.27 sec. (tree size = 142.79 MB, solutions = 9)
Nodefile size = 15.38 MB (8.41 MB after compression)
  11100  8393     1309.0000    58     1323.0000     1285.0000   920416    2.87%
  11200  8457     1309.0000    67     1323.0000     1285.0000   925369    2.87%
  11300  8521     1314.1546    82     1323.0000     1285.0000   930850    2.87%
  11400  8607     1312.0000    68     1323.0000     1285.0000   933987    2.87%
  11500  8679     1320.2909    64     1323.0000     1285.0000   937646    2.87%
  11600  8744     1317.0000    69     1323.0000     1285.0000   941500    2.87%
  11700  8808     1322.0000    53     1323.0000     1285.0000   944058    2.87%
  11800  8872     1290.0000   126     1323.0000     1285.0000  1009989    2.87%
  11900  8971     1291.0000   141     1323.0000     1285.0000  1021665    2.87%
  12000  9068     1290.0000   154     1323.0000     1285.0000  1046191    2.87%
Elapsed time = 2732.44 sec. (tree size = 159.72 MB, solutions = 9)
Nodefile size = 32.21 MB (19.42 MB after compression)
  12100  9167     1291.0000   152     1323.0000     1285.0000  1061571    2.87%
  12200  9264     1292.0000   148     1323.0000     1285.0000  1083805    2.87%
  12300  9362     1294.0000   120     1323.0000     1285.0000  1092564    2.87%
  12400  9459     1287.0000   149     1323.0000     1285.0000  1131510    2.87%
  12500  9557     1288.0000   142     1323.0000     1285.0000  1154476    2.87%
  12600  9655     1292.0000   157     1323.0000     1285.0000  1175311    2.87%
  12700  9754     1293.0000    98     1323.0000     1285.0000  1180528    2.87%
  12800  9853     1291.0000   170     1323.0000     1285.0000  1196560    2.87%
  12900  9952     1292.0000   121     1323.0000     1285.0000  1216224    2.87%
  13000 10049     1288.0000   129     1323.0000     1285.0000  1251794    2.87%
Elapsed time = 3283.22 sec. (tree size = 181.41 MB, solutions = 9)
Nodefile size = 53.96 MB (31.54 MB after compression)
  13100 10148     1289.0000   103     1323.0000     1285.0000  1276551    2.87%
  13200 10243     1288.0000   194     1323.0000     1285.0000  1317823    2.87%
  13300 10341     1289.0000   101     1323.0000     1285.0000  1341103    2.87%
  13400 10437     1288.0000   206     1323.0000     1285.0000  1381910    2.87%
  13500 10535     1289.0000   125     1323.0000     1285.0000  1400180    2.87%
  13600 10633     1287.0000   119     1323.0000     1285.0000  1440257    2.87%
  13700 10733     1287.0000   156     1323.0000     1285.0000  1455518    2.87%
  13800 10832     1286.0000   171     1323.0000     1285.0000  1503313    2.87%
  13900 10931     1287.0000   114     1323.0000     1285.0000  1522134    2.87%
  14000 11028     1286.0000   228     1323.0000     1285.0000  1572178    2.87%
Elapsed time = 4161.66 sec. (tree size = 203.37 MB, solutions = 9)
Nodefile size = 75.87 MB (44.44 MB after compression)
  14100 11126     1287.0000   138     1323.0000     1285.0000  1583787    2.87%
  14200 11223     1289.0000   131     1323.0000     1285.0000  1606778    2.87%
  14300 11322     1290.0000    93     1323.0000     1285.0000  1625206    2.87%
  14400 11418     1287.0000   136     1323.0000     1285.0000  1696278    2.87%
  14500 11518     1287.0000   154     1323.0000     1285.0000  1710709    2.87%
  14600 11615     1289.0000   136     1323.0000     1285.0000  1733280    2.87%
  14700 11714     1290.0000   106     1323.0000     1285.0000  1757560    2.87%
  14800 11813     1291.0000   131     1323.0000     1285.0000  1772170    2.87%
  14900 11913     1291.0000   138     1323.0000     1285.0000  1788330    2.87%
  15000 12010     1288.0000   120     1323.0000     1285.0000  1817133    2.87%
Elapsed time = 4906.58 sec. (tree size = 226.07 MB, solutions = 9)
Nodefile size = 98.97 MB (58.12 MB after compression)
  15100 12109     1289.0000    96     1323.0000     1285.0000  1841781    2.87%
  15200 12207     1292.0000   158     1323.0000     1285.0000  1862109    2.87%
  15300 12306     1293.0000    92     1323.0000     1285.0000  1873141    2.87%
  15400 12403     1291.0000   147     1323.0000     1285.0000  1896290    2.87%
  15500 12501     1292.0000   153     1323.0000     1285.0000  1921857    2.87%
  15600 12595     1291.0000   118     1323.0000     1285.0000  1944792    2.87%
  15700 12695     1291.0000   123     1323.0000     1285.0000  1957679    2.87%
  15800 12791     1289.0000   146     1323.0000     1285.0000  1986226    2.87%
  15900 12890     1290.0000    96     1323.0000     1285.0000  2011493    2.87%
  16000 12987     1289.0000   136     1323.0000     1285.0000  2037866    2.87%
Elapsed time = 5517.56 sec. (tree size = 248.89 MB, solutions = 9)
Nodefile size = 121.76 MB (74.46 MB after compression)
  16100 13086     1290.0000   101     1323.0000     1285.0000  2052061    2.87%
  16200 13184     1287.0000   126     1323.0000     1285.0000  2118960    2.87%
  16300 13284     1287.0000   153     1323.0000     1285.0000  2135771    2.87%
  16400 13380     1291.0000   128     1323.0000     1285.0000  2155635    2.87%
  16500 13479     1291.0000   135     1323.0000     1285.0000  2173140    2.87%
  16600 13574     1292.0000   109     1323.0000     1285.0000  2206952    2.87%
  16700 13674     1292.0000   137     1323.0000     1285.0000  2215786    2.87%
  16800 13772     1293.0000    99     1323.0000     1285.0000  2242629    2.87%
  16900 13872     1293.0000   146     1323.0000     1285.0000  2253271    2.87%
  17000 13971     1291.0000   176     1323.0000     1285.0000  2279007    2.87%
Elapsed time = 6210.73 sec. (tree size = 272.21 MB, solutions = 9)
Nodefile size = 144.49 MB (92.96 MB after compression)
  17100 14070     1292.0000   131     1323.0000     1285.0000  2287237    2.87%
  17200 14169     1291.0000   185     1323.0000     1285.0000  2311806    2.87%
  17300 14264     1292.0000   113     1323.0000     1285.0000  2323038    2.87%
  17400 14362     1286.0000   171     1323.0000     1285.0000  2364838    2.87%
  17500 14457     1287.0000   186     1323.0000     1285.0000  2391331    2.87%
* 17510+14465                         1322.0000     1285.0000  2392001    2.80%
  17600 14555     1292.0000   109     1322.0000     1285.0000  2416269    2.80%
  17700 14655     1292.0000   154     1322.0000     1285.0000  2425028    2.80%
  17800 14754     1292.0000   153     1322.0000     1285.0000  2440717    2.80%
* 17810+14644                         1321.0000     1285.0000  2443369    2.73%
  17900 14735     1293.0000   100     1321.0000     1285.0000  2451675    2.73%
* 17910+14684                         1320.0000     1285.0000  2452006    2.65%
* 17910+14625                         1319.0000     1285.0000  2452006    2.58%
  18000 14712     1287.0000   190     1319.0000     1285.0000  2498703    2.58%
Elapsed time = 6830.05 sec. (tree size = 291.99 MB, solutions = 13)
Nodefile size = 164.41 MB (110.45 MB after compression)
* 18010+14543                         1318.0000     1285.0000  2501581    2.50%
  18100 14632     1288.0000   118     1318.0000     1285.0000  2522338    2.50%
  18200 14730     1292.0000   160     1318.0000     1285.0000  2550224    2.50%
  18300 14829     1293.0000   113     1318.0000     1285.0000  2562005    2.50%
  18400 14926     1292.0000   112     1318.0000     1285.0000  2586330    2.50%
  18500 15025     1292.0000   121     1318.0000     1285.0000  2592967    2.50%
  18600 15122     1290.0000   174     1318.0000     1285.0000  2621084    2.50%

Cover cuts applied:  1064
Mixed integer rounding cuts applied:  1
Zero-half cuts applied:  1
Gomory fractional cuts applied:  21

Solution pool: 14 solutions saved.

MIP - Time limit exceeded, integer feasible:  Objective = 1.3180000000e+003
Current MIP best bound = 1.2850000000e+003 (gap = 33, 2.50%)
Solution time = 7200.14 sec.  Iterations = 2623413  Nodes = 18610 (15131)


Incumbent solution
Variable Name           Solution Value
Cmax                       1318.000000
X_1_15                        1.000000
X_2_16                        1.000000
X_3_25                        1.000000
X_4_15                        1.000000
X_5_7                         1.000000
X_6_30                        1.000000
X_7_20                        1.000000
X_8_10                        1.000000
X_9_2                         1.000000
X_10_1                        1.000000
X_11_15                       1.000000
X_12_22                       1.000000
X_13_5                        1.000000
X_14_33                       1.000000
X_15_26                       1.000000
X_16_11                       1.000000
X_17_2                        1.000000
X_18_9                        1.000000
X_19_20                       1.000000
X_20_26                       1.000000
X_21_38                       1.000000
X_22_19                       1.000000
X_23_15                       1.000000
X_24_37                       1.000000
X_25_4                        1.000000
X_26_23                       1.000000
X_27_39                       1.000000
X_28_6                        1.000000
X_29_37                       1.000000
X_30_37                       1.000000
X_31_2                        1.000000
X_32_30                       1.000000
X_33_32                       1.000000
X_34_40                       1.000000
X_35_8                        1.000000
X_36_17                       1.000000
X_37_21                       1.000000
X_38_34                       1.000000
X_39_20                       1.000000
X_40_33                       1.000000
X_41_21                       1.000000
X_42_34                       1.000000
X_43_7                        1.000000
X_44_3                        1.000000
X_45_15                       1.000000
X_46_30                       1.000000
X_47_28                       1.000000
X_48_35                       1.000000
X_49_31                       1.000000
X_50_31                       1.000000
X_51_17                       1.000000
X_52_38                       1.000000
X_53_31                       1.000000
X_54_9                        1.000000
X_55_24                       1.000000
X_56_18                       1.000000
X_57_19                       1.000000
X_58_29                       1.000000
X_59_29                       1.000000
X_60_35                       1.000000
X_61_28                       1.000000
X_62_35                       1.000000
X_63_23                       1.000000
X_64_13                       1.000000
X_65_17                       1.000000
X_66_1                        1.000000
X_67_26                       1.000000
X_68_9                        1.000000
X_69_2                        1.000000
X_70_33                       1.000000
X_71_29                       1.000000
X_72_4                        1.000000
X_73_4                        1.000000
X_74_9                        1.000000
X_75_9                        1.000000
X_76_27                       1.000000
X_77_16                       1.000000
X_78_13                       1.000000
X_79_9                        1.000000
X_80_39                       1.000000
X_81_28                       1.000000
X_82_33                       1.000000
X_83_28                       1.000000
X_84_16                       1.000000
X_85_6                        1.000000
X_86_30                       1.000000
X_87_24                       1.000000
X_88_28                       1.000000
X_89_18                       1.000000
X_90_28                       1.000000
X_91_36                       1.000000
X_92_20                       1.000000
X_93_26                       1.000000
X_94_12                       1.000000
X_95_35                       1.000000
X_96_20                       1.000000
X_97_27                       1.000000
X_98_34                       1.000000
X_99_30                       1.000000
X_100_33                      1.000000
X_101_2                       1.000000
X_102_32                      1.000000
X_103_38                      1.000000
X_104_10                      1.000000
X_105_18                      1.000000
X_106_23                      1.000000
X_107_23                      1.000000
X_108_24                      1.000000
X_109_1                       1.000000
X_110_23                      1.000000
X_111_4                       1.000000
X_112_12                      1.000000
X_113_16                      1.000000
X_114_40                      1.000000
X_115_22                      1.000000
X_116_14                      1.000000
X_117_17                      1.000000
X_118_14                      1.000000
X_119_27                      1.000000
X_120_36                      1.000000
X_121_14                      1.000000
X_122_19                      1.000000
X_123_13                      1.000000
X_124_3                       1.000000
X_125_1                       1.000000
X_126_3                       1.000000
X_127_23                      1.000000
X_128_34                      1.000000
X_129_35                      1.000000
X_130_29                      1.000000
X_131_7                       1.000000
X_132_40                      1.000000
X_133_39                      1.000000
X_134_10                      1.000000
X_135_18                      1.000000
X_136_22                      1.000000
X_137_39                      1.000000
X_138_35                      1.000000
X_139_37                      1.000000
X_140_19                      1.000000
X_141_21                      1.000000
X_142_13                      1.000000
X_143_1                       1.000000
X_144_5                       1.000000
X_145_21                      1.000000
X_146_26                      1.000000
X_147_27                      1.000000
X_148_8                       1.000000
X_149_10                      1.000000
X_150_30                      1.000000
X_151_20                      1.000000
X_152_37                      1.000000
X_153_3                       1.000000
X_154_25                      1.000000
X_155_31                      1.000000
X_156_13                      1.000000
X_157_39                      1.000000
X_158_10                      1.000000
X_159_22                      1.000000
X_160_40                      1.000000
X_161_37                      1.000000
X_162_1                       1.000000
X_163_17                      1.000000
X_164_16                      1.000000
X_165_34                      1.000000
X_166_13                      1.000000
X_167_2                       1.000000
X_168_32                      1.000000
X_169_29                      1.000000
X_170_3                       1.000000
X_171_6                       1.000000
X_172_14                      1.000000
X_173_17                      1.000000
X_174_31                      1.000000
X_175_7                       1.000000
X_176_13                      1.000000
X_177_30                      1.000000
X_178_9                       1.000000
X_179_5                       1.000000
X_180_32                      1.000000
X_181_6                       1.000000
X_182_37                      1.000000
X_183_35                      1.000000
X_184_39                      1.000000
X_185_26                      1.000000
X_186_3                       1.000000
X_187_16                      1.000000
X_188_25                      1.000000
X_189_31                      1.000000
X_190_14                      1.000000
X_191_23                      1.000000
X_192_38                      1.000000
X_193_8                       1.000000
X_194_5                       1.000000
X_195_11                      1.000000
X_196_36                      1.000000
X_197_22                      1.000000
X_198_15                      1.000000
X_199_31                      1.000000
X_200_28                      1.000000
X_201_27                      1.000000
X_202_13                      1.000000
X_203_2                       1.000000
X_204_37                      1.000000
X_205_25                      1.000000
X_206_25                      1.000000
X_207_28                      1.000000
X_208_5                       1.000000
X_209_33                      1.000000
X_210_4                       1.000000
X_211_24                      1.000000
X_212_16                      1.000000
X_213_37                      1.000000
X_214_27                      1.000000
X_215_13                      1.000000
X_216_7                       1.000000
X_217_14                      1.000000
X_218_35                      1.000000
X_219_39                      1.000000
X_220_37                      1.000000
X_221_39                      1.000000
X_222_14                      1.000000
X_223_33                      1.000000
X_224_38                      1.000000
X_225_4                       1.000000
X_226_5                       1.000000
X_227_20                      1.000000
X_228_17                      1.000000
X_229_10                      1.000000
X_230_39                      1.000000
X_231_22                      1.000000
X_232_6                       1.000000
X_233_7                       1.000000
X_234_26                      1.000000
X_235_40                      1.000000
X_236_18                      1.000000
X_237_17                      1.000000
X_238_16                      1.000000
X_239_26                      1.000000
X_240_20                      1.000000
X_241_25                      1.000000
X_242_21                      1.000000
X_243_5                       1.000000
X_244_2                       1.000000
X_245_35                      1.000000
X_246_17                      1.000000
X_247_18                      1.000000
X_248_30                      1.000000
X_249_34                      1.000000
X_250_14                      1.000000
X_251_19                      1.000000
X_252_12                      1.000000
X_253_19                      1.000000
X_254_8                       1.000000
X_255_22                      1.000000
X_256_4                       1.000000
X_257_14                      1.000000
X_258_40                      1.000000
X_259_40                      1.000000
X_260_30                      1.000000
X_261_5                       1.000000
X_262_30                      1.000000
X_263_36                      1.000000
X_264_28                      1.000000
X_265_23                      1.000000
X_266_10                      1.000000
X_267_27                      1.000000
X_268_19                      1.000000
X_269_1                       1.000000
X_270_15                      1.000000
X_271_33                      1.000000
X_272_12                      1.000000
X_273_13                      1.000000
X_274_6                       1.000000
X_275_29                      1.000000
X_276_26                      1.000000
X_277_15                      1.000000
X_278_20                      1.000000
X_279_11                      1.000000
X_280_8                       1.000000
X_281_10                      1.000000
X_282_40                      1.000000
X_283_24                      1.000000
X_284_29                      1.000000
X_285_2                       1.000000
X_286_29                      1.000000
X_287_10                      1.000000
X_288_19                      1.000000
X_289_1                       1.000000
X_290_2                       1.000000
X_291_27                      1.000000
X_292_36                      1.000000
X_293_8                       1.000000
X_294_33                      1.000000
X_295_32                      1.000000
X_296_36                      1.000000
X_297_21                      1.000000
X_298_8                       1.000000
X_299_3                       1.000000
X_300_33                      1.000000
X_301_32                      1.000000
X_302_12                      1.000000
X_303_10                      1.000000
X_304_14                      1.000000
X_305_22                      1.000000
X_306_39                      1.000000
X_307_1                       1.000000
X_308_17                      1.000000
X_309_38                      1.000000
X_310_11                      1.000000
X_311_25                      1.000000
X_312_21                      1.000000
X_313_26                      1.000000
X_314_34                      1.000000
X_315_22                      1.000000
X_316_32                      1.000000
X_317_20                      1.000000
X_318_7                       1.000000
X_319_5                       1.000000
X_320_1                       1.000000
X_321_8                       1.000000
X_322_29                      1.000000
X_323_18                      1.000000
X_324_8                       1.000000
X_325_7                       1.000000
X_326_6                       1.000000
X_327_36                      1.000000
X_328_15                      1.000000
X_329_7                       1.000000
X_330_28                      1.000000
X_331_27                      1.000000
X_332_19                      1.000000
X_333_23                      1.000000
X_334_13                      1.000000
X_335_22                      1.000000
X_336_34                      1.000000
X_337_31                      1.000000
X_338_24                      1.000000
X_339_8                       1.000000
X_340_9                       1.000000
X_341_15                      1.000000
X_342_11                      1.000000
X_343_11                      1.000000
X_344_11                      1.000000
X_345_6                       1.000000
X_346_16                      1.000000
X_347_39                      1.000000
X_348_34                      1.000000
X_349_32                      1.000000
X_350_9                       1.000000
X_351_14                      1.000000
X_352_5                       1.000000
X_353_18                      1.000000
X_354_22                      1.000000
X_355_1                       1.000000
X_356_18                      1.000000
X_357_25                      1.000000
X_358_36                      1.000000
X_359_17                      1.000000
X_360_23                      1.000000
X_361_37                      1.000000
X_362_8                       1.000000
X_363_13                      1.000000
X_364_34                      1.000000
X_365_12                      1.000000
X_366_21                      1.000000
X_367_14                      1.000000
X_368_20                      1.000000
X_369_40                      1.000000
X_370_11                      1.000000
X_371_11                      1.000000
X_372_36                      1.000000
X_373_35                      1.000000
X_374_35                      1.000000
X_375_6                       1.000000
X_376_38                      1.000000
X_377_10                      1.000000
X_378_21                      1.000000
X_379_28                      1.000000
X_380_32                      1.000000
X_381_7                       1.000000
X_382_3                       1.000000
X_383_18                      1.000000
X_384_6                       1.000000
X_385_5                       1.000000
X_386_12                      1.000000
X_387_16                      1.000000
X_388_17                      1.000000
X_389_38                      1.000000
X_390_31                      1.000000
X_391_37                      1.000000
X_392_21                      1.000000
X_393_25                      1.000000
X_394_40                      1.000000
X_395_29                      1.000000
X_396_30                      1.000000
X_397_30                      1.000000
X_398_12                      1.000000
X_399_26                      1.000000
X_400_38                      1.000000
X_401_27                      1.000000
X_402_19                      1.000000
X_403_16                      1.000000
X_404_33                      1.000000
X_405_29                      1.000000
X_406_2                       1.000000
X_407_8                       1.000000
X_408_25                      1.000000
X_409_25                      1.000000
X_410_19                      1.000000
X_411_16                      1.000000
X_412_11                      1.000000
X_413_4                       1.000000
X_414_22                      1.000000
X_415_11                      1.000000
X_416_38                      1.000000
X_417_10                      1.000000
X_418_24                      1.000000
X_419_40                      1.000000
X_420_34                      1.000000
X_421_12                      1.000000
X_422_18                      1.000000
X_423_25                      1.000000
X_424_2                       1.000000
X_425_28                      1.000000
X_426_4                       1.000000
X_427_17                      1.000000
X_428_24                      1.000000
X_429_4                       1.000000
X_430_11                      1.000000
X_431_7                       1.000000
X_432_39                      1.000000
X_433_24                      1.000000
X_434_35                      1.000000
X_435_39                      1.000000
X_436_24                      1.000000
X_437_38                      1.000000
X_438_19                      1.000000
X_439_5                       1.000000
X_440_24                      1.000000
X_441_36                      1.000000
X_442_6                       1.000000
X_443_21                      1.000000
X_444_32                      1.000000
X_445_1                       1.000000
X_446_2                       1.000000
X_447_9                       1.000000
X_448_3                       1.000000
X_449_32                      1.000000
X_450_13                      1.000000
X_451_25                      1.000000
X_452_22                      1.000000
X_453_11                      1.000000
X_454_4                       1.000000
X_455_23                      1.000000
X_456_12                      1.000000
X_457_23                      1.000000
X_458_26                      1.000000
X_459_27                      1.000000
X_460_36                      1.000000
X_461_31                      1.000000
X_462_34                      1.000000
X_463_18                      1.000000
X_464_9                       1.000000
X_465_12                      1.000000
X_466_27                      1.000000
X_467_12                      1.000000
X_468_12                      1.000000
X_469_7                       1.000000
X_470_31                      1.000000
X_471_31                      1.000000
X_472_24                      1.000000
X_473_33                      1.000000
X_474_21                      1.000000
X_475_4                       1.000000
X_476_9                       1.000000
X_477_36                      1.000000
X_478_36                      1.000000
X_479_35                      1.000000
X_480_26                      1.000000
X_481_30                      1.000000
X_482_38                      1.000000
X_483_15                      1.000000
X_484_6                       1.000000
X_485_27                      1.000000
X_486_23                      1.000000
X_487_18                      1.000000
X_488_3                       1.000000
X_489_5                       1.000000
X_490_37                      1.000000
X_491_3                       1.000000
X_492_40                      1.000000
X_493_3                       1.000000
X_494_32                      1.000000
X_495_20                      1.000000
X_496_29                      1.000000
X_497_15                      1.000000
X_498_40                      1.000000
X_499_29                      1.000000
X_500_9                       1.000000
All other variables in the range 1-20001 are 0.
